
  32    4
  10   10   10   10

   0   0   0   0   0   6 2 8 9 13 30 31 
   8   1   1   0   1   1 3 
   4   7   3   0   3   5 28 27 25 23 4 
   2   0   1   1   4   4 26 24 22 5 
   1   0   5   3   1   1 6 
   1   5   4   0   4   2 20 7 
   3   6   0   6   1   3 21 19 10 
   1   3   5   0   3   5 25 23 22 16 14 
   5   2   6   2   0   5 29 20 19 18 14 
   7   0   5   4   4   2 16 11 
   4   6   1   0   5   1 12 
   5   5   2   0   4   2 18 14 
   4   4   0   7   6   3 24 23 22 
   5   5   6   5   0   1 15 
   9   6   0   2   2   1 17 
   3   2   5   0   5   1 18 
   3   4   6   0  10   1 32
   3   2   5   0   5   1 32
   4   0   1   6   7   1 32
  10   4   5   0   5   1 32
   1   0   3   7   6   1 32
   3   3   6   4   0   1 32
   7   5   5   0   4   1 32
   1   1   0   4   3   1 32
   4   3   3   4   0   1 32
   5   5   0   2   3   1 32
   5   4   0   2   4   1 32
  10   4   5   4   0   1 32
  10   5   0   5   2   1 32
   3   3   4   0   4   1 32
   1   5   5   4   0   1 32
   0   0   0   0   0   0 
